c b=4,c=263
p cnf 16 48
2 3 4 -8 0
1 3 4 -9 0
1 2 4 -10 0
4 -16 0
2 3 -4 8 0
2 -4 9 0
2 3 -4 10 0
-4 16 0
1 2 3 -7 0
2 3 -11 0
3 -15 0
1 -3 4 8 0
4 -11 0
1 -3 -4 -8 0
-3 -4 11 0
1 2 -3 7 0
1 2 -3 9 0
1 2 -3 -10 0
-3 15 0
1 2 -6 0
2 -14 0
1 -2 4 8 0
1 -2 -4 -8 0
-2 -4 11 0
-2 3 7 0
-2 3 -10 0
-2 -3 -7 0
-2 -3 10 0
1 -2 6 0
1 -2 -9 0
-2 14 0
1 -5 0
1 -13 0
-1 4 -8 0
-1 2 4 -9 0
-1 3 4 -10 0
-1 -4 8 0
-1 3 7 0
-1 -3 4 10 0
2 -3 -4 -10 0
-1 -3 -7 0
-1 2 6 0
-1 -2 4 9 0
-2 -4 -9 0
-1 -2 -6 0
-1 5 0
-1 13 0
-12 0
